NAME : amz1504.101498_101498.tour
COMMENT : Cost = 101498_101498
COMMENT : Found by LKH-AMZ [Keld Helsgaun] Sun May 11 14:54:20 2025
COMMENT : TW viol.: 0 #: 0
TYPE : TOUR
DIMENSION : 146
TOUR_SECTION
96
107
101
2
102
22
62
41
108
86
37
29
28
136
54
83
73
38
49
145
20
17
1
18
90
114
81
51
79
143
112
110
138
23
109
111
33
120
36
75
124
12
68
67
31
69
118
40
16
106
142
119
10
34
30
76
117
131
7
93
100
132
141
135
50
104
15
63
113
19
130
52
127
53
24
27
5
103
129
78
99
123
61
89
98
115
4
59
91
97
128
121
65
70
94
14
21
95
92
134
3
44
60
133
140
13
126
139
39
57
105
55
42
84
80
64
74
32
72
71
26
122
25
146
144
43
11
6
47
46
56
77
58
48
85
87
66
137
88
82
9
45
125
8
35
116
-1
EOF
